(set-info :smt-lib-version 2.6)
(set-logic UF)
(set-info :source |Benchmarks from the paper: "Extending Sledgehammer with SMT Solvers" by Jasmin Blanchette, Sascha Bohme, and Lawrence C. Paulson, CADE 2011.  Translated to SMT2 by Andrew Reynolds and Morgan Deters.|)
(set-info :category "industrial")
(set-info :status unknown)
(declare-sort S1 0)
(declare-sort S2 0)
(declare-sort S3 0)
(declare-sort S4 0)
(declare-sort S5 0)
(declare-sort S6 0)
(declare-sort S7 0)
(declare-sort S8 0)
(declare-sort S9 0)
(declare-sort S10 0)
(declare-sort S11 0)
(declare-sort S12 0)
(declare-sort S13 0)
(declare-sort S14 0)
(declare-sort S15 0)
(declare-sort S16 0)
(declare-sort S17 0)
(declare-sort S18 0)
(declare-sort S19 0)
(declare-sort S20 0)
(declare-sort S21 0)
(declare-sort S22 0)
(declare-sort S23 0)
(declare-sort S24 0)
(declare-sort S25 0)
(declare-sort S26 0)
(declare-sort S27 0)
(declare-sort S28 0)
(declare-sort S29 0)
(declare-sort S30 0)
(declare-sort S31 0)
(declare-sort S32 0)
(declare-sort S33 0)
(declare-sort S34 0)
(declare-sort S35 0)
(declare-sort S36 0)
(declare-sort S37 0)
(declare-sort S38 0)
(declare-sort S39 0)
(declare-sort S40 0)
(declare-sort S41 0)
(declare-sort S42 0)
(declare-sort S43 0)
(declare-sort S44 0)
(declare-sort S45 0)
(declare-sort S46 0)
(declare-sort S47 0)
(declare-sort S48 0)
(declare-sort S49 0)
(declare-sort S50 0)
(declare-sort S51 0)
(declare-sort S52 0)
(declare-sort S53 0)
(declare-sort S54 0)
(declare-sort S55 0)
(declare-sort S56 0)
(declare-sort S57 0)
(declare-sort S58 0)
(declare-sort S59 0)
(declare-sort S60 0)
(declare-sort S61 0)
(declare-sort S62 0)
(declare-sort S63 0)
(declare-sort S64 0)
(declare-sort S65 0)
(declare-sort S66 0)
(declare-sort S67 0)
(declare-sort S68 0)
(declare-sort S69 0)
(declare-sort S70 0)
(declare-sort S71 0)
(declare-sort S72 0)
(declare-sort S73 0)
(declare-sort S74 0)
(declare-sort S75 0)
(declare-sort S76 0)
(declare-sort S77 0)
(declare-sort S78 0)
(declare-sort S79 0)
(declare-sort S80 0)
(declare-sort S81 0)
(declare-sort S82 0)
(declare-sort S83 0)
(declare-sort S84 0)
(declare-sort S85 0)
(declare-sort S86 0)
(declare-sort S87 0)
(declare-sort S88 0)
(declare-sort S89 0)
(declare-sort S90 0)
(declare-sort S91 0)
(declare-sort S92 0)
(declare-sort S93 0)
(declare-sort S94 0)
(declare-sort S95 0)
(declare-sort S96 0)
(declare-sort S97 0)
(declare-sort S98 0)
(declare-sort S99 0)
(declare-sort S100 0)
(declare-sort S101 0)
(declare-sort S102 0)
(declare-sort S103 0)
(declare-sort S104 0)
(declare-sort S105 0)
(declare-sort S106 0)
(declare-sort S107 0)
(declare-sort S108 0)
(declare-sort S109 0)
(declare-sort S110 0)
(declare-sort S111 0)
(declare-fun f1 () S1)
(declare-fun f2 () S1)
(declare-fun f3 (S3 S2) S2)
(declare-fun f4 (S4 S5) S3)
(declare-fun f5 () S4)
(declare-fun f6 () S5)
(declare-fun f7 () S2)
(declare-fun f8 (S3) S1)
(declare-fun f9 (S7 S6) S6)
(declare-fun f10 (S8 S9) S7)
(declare-fun f11 () S8)
(declare-fun f12 () S9)
(declare-fun f13 () S6)
(declare-fun f14 (S10 S5) S5)
(declare-fun f15 (S11 S12) S10)
(declare-fun f16 () S11)
(declare-fun f17 () S12)
(declare-fun f18 () S5)
(declare-fun f19 (S14 S13) S13)
(declare-fun f20 (S15 S16) S14)
(declare-fun f21 () S15)
(declare-fun f22 () S16)
(declare-fun f23 () S13)
(declare-fun f24 (S18 S17) S17)
(declare-fun f25 (S19 S20) S18)
(declare-fun f26 () S19)
(declare-fun f27 () S20)
(declare-fun f28 () S17)
(declare-fun f29 (S22 S21) S21)
(declare-fun f30 (S23 S6) S22)
(declare-fun f31 () S23)
(declare-fun f32 () S21)
(declare-fun f33 (S25 S24) S24)
(declare-fun f34 (S26 S17) S25)
(declare-fun f35 () S26)
(declare-fun f36 () S24)
(declare-fun f37 (S28 S27) S27)
(declare-fun f38 (S29 S13) S28)
(declare-fun f39 () S29)
(declare-fun f40 () S27)
(declare-fun f41 (S30 S9) S27)
(declare-fun f42 (S31 S6) S30)
(declare-fun f43 () S31)
(declare-fun f44 (S32 S12) S27)
(declare-fun f45 (S33 S5) S32)
(declare-fun f46 () S33)
(declare-fun f47 (S34 S20) S27)
(declare-fun f48 (S35 S17) S34)
(declare-fun f49 () S35)
(declare-fun f50 (S36 S6) S27)
(declare-fun f51 (S37 S21) S36)
(declare-fun f52 () S37)
(declare-fun f53 (S38 S17) S27)
(declare-fun f54 (S39 S24) S38)
(declare-fun f55 () S39)
(declare-fun f56 (S40 S5) S27)
(declare-fun f57 (S41 S2) S40)
(declare-fun f58 () S41)
(declare-fun f59 (S42 S17) S18)
(declare-fun f60 () S42)
(declare-fun f61 (S43 S6) S7)
(declare-fun f62 () S43)
(declare-fun f63 (S44 S13) S14)
(declare-fun f64 () S44)
(declare-fun f65 (S45 S5) S10)
(declare-fun f66 () S45)
(declare-fun f67 () S2)
(declare-fun f68 (S46) S1)
(declare-fun f69 (S46 S2) S6)
(declare-fun f70 (S47) S1)
(declare-fun f71 (S47 S2) S5)
(declare-fun f72 (S48) S1)
(declare-fun f73 (S48 S2) S17)
(declare-fun f74 (S49) S1)
(declare-fun f75 (S49 S21) S6)
(declare-fun f76 (S50) S1)
(declare-fun f77 (S50 S21) S5)
(declare-fun f78 (S51) S1)
(declare-fun f79 (S51 S21) S17)
(declare-fun f80 (S52) S1)
(declare-fun f81 (S52 S24) S6)
(declare-fun f82 (S53) S1)
(declare-fun f83 (S53 S24) S5)
(declare-fun f84 (S54) S1)
(declare-fun f85 (S54 S24) S17)
(declare-fun f86 (S55) S1)
(declare-fun f87 (S55 S6) S2)
(declare-fun f88 (S56) S1)
(declare-fun f89 (S56 S5) S2)
(declare-fun f90 (S57) S1)
(declare-fun f91 (S57 S17) S2)
(declare-fun f92 (S58) S1)
(declare-fun f93 (S58 S6) S21)
(declare-fun f94 (S59) S1)
(declare-fun f95 (S59 S5) S21)
(declare-fun f96 (S60) S1)
(declare-fun f97 (S60 S17) S21)
(declare-fun f98 (S61) S1)
(declare-fun f99 (S61 S6) S24)
(declare-fun f100 (S62) S1)
(declare-fun f101 (S62 S5) S24)
(declare-fun f102 (S63) S1)
(declare-fun f103 (S63 S17) S24)
(declare-fun f104 (S6 S64) S1)
(declare-fun f105 () S64)
(declare-fun f106 (S5 S65) S1)
(declare-fun f107 () S65)
(declare-fun f108 (S13 S66) S1)
(declare-fun f109 () S66)
(declare-fun f110 (S17 S67) S1)
(declare-fun f111 () S67)
(declare-fun f112 (S2 S68) S1)
(declare-fun f113 () S68)
(declare-fun f114 (S21 S69) S1)
(declare-fun f115 () S69)
(declare-fun f116 (S24 S70) S1)
(declare-fun f117 () S70)
(declare-fun f118 (S27 S71) S1)
(declare-fun f119 () S71)
(declare-fun f120 (S6) S1)
(declare-fun f121 (S5) S1)
(declare-fun f122 (S13) S1)
(declare-fun f123 (S17) S1)
(declare-fun f124 (S2) S1)
(declare-fun f125 (S21) S1)
(declare-fun f126 (S24) S1)
(declare-fun f127 (S27) S1)
(declare-fun f128 () S36)
(declare-fun f129 () S40)
(declare-fun f130 (S72 S13) S27)
(declare-fun f131 () S72)
(declare-fun f132 () S38)
(declare-fun f133 (S73 S27) S9)
(declare-fun f134 (S74 S6) S73)
(declare-fun f135 () S74)
(declare-fun f136 (S75 S27) S12)
(declare-fun f137 (S76 S5) S75)
(declare-fun f138 () S76)
(declare-fun f139 (S77 S27) S16)
(declare-fun f140 (S78 S13) S77)
(declare-fun f141 () S78)
(declare-fun f142 (S79 S27) S20)
(declare-fun f143 (S80 S17) S79)
(declare-fun f144 () S80)
(declare-fun f145 (S81 S27) S5)
(declare-fun f146 (S82 S2) S81)
(declare-fun f147 () S82)
(declare-fun f148 (S83 S27) S6)
(declare-fun f149 (S84 S21) S83)
(declare-fun f150 () S84)
(declare-fun f151 (S85 S27) S17)
(declare-fun f152 (S86 S24) S85)
(declare-fun f153 () S86)
(declare-fun f154 (S87 S27) S13)
(declare-fun f155 (S88 S27) S87)
(declare-fun f156 () S88)
(declare-fun f157 (S89 S6) S49)
(declare-fun f158 () S89)
(declare-fun f159 (S90 S5) S47)
(declare-fun f160 () S90)
(declare-fun f161 (S91 S13) S87)
(declare-fun f162 () S91)
(declare-fun f163 (S92 S17) S54)
(declare-fun f164 () S92)
(declare-fun f165 () S89)
(declare-fun f166 () S90)
(declare-fun f167 () S91)
(declare-fun f168 () S92)
(declare-fun f169 (S93 S21) S2)
(declare-fun f170 (S94 S21) S93)
(declare-fun f171 () S94)
(declare-fun f172 (S95 S9) S9)
(declare-fun f173 (S96 S6) S95)
(declare-fun f174 () S96)
(declare-fun f175 (S97 S12) S12)
(declare-fun f176 (S98 S5) S97)
(declare-fun f177 () S98)
(declare-fun f178 (S99 S20) S20)
(declare-fun f179 (S100 S17) S99)
(declare-fun f180 () S100)
(declare-fun f181 (S101 S2) S10)
(declare-fun f182 () S101)
(declare-fun f183 (S102 S21) S7)
(declare-fun f184 () S102)
(declare-fun f185 (S103 S24) S18)
(declare-fun f186 () S103)
(declare-fun f187 (S104 S27) S14)
(declare-fun f188 () S104)
(declare-fun f189 () S103)
(declare-fun f190 () S102)
(declare-fun f191 () S101)
(declare-fun f192 () S104)
(declare-fun f193 () S96)
(declare-fun f194 () S98)
(declare-fun f195 (S105 S16) S16)
(declare-fun f196 (S106 S13) S105)
(declare-fun f197 () S106)
(declare-fun f198 () S100)
(declare-fun f199 () S106)
(declare-fun f200 (S66 S13) S1)
(declare-fun f201 (S67 S17) S1)
(declare-fun f202 (S64 S6) S1)
(declare-fun f203 (S65 S5) S1)
(declare-fun f204 () S42)
(declare-fun f205 () S43)
(declare-fun f206 () S44)
(declare-fun f207 () S45)
(declare-fun f208 () S28)
(declare-fun f209 () S36)
(declare-fun f210 () S40)
(declare-fun f211 () S72)
(declare-fun f212 () S38)
(declare-fun f213 (S5) S65)
(declare-fun f214 (S6) S64)
(declare-fun f215 (S107 S21) S22)
(declare-fun f216 () S107)
(declare-fun f217 (S108 S2) S3)
(declare-fun f218 () S108)
(declare-fun f219 (S109 S27) S28)
(declare-fun f220 () S109)
(declare-fun f221 (S110 S24) S25)
(declare-fun f222 () S110)
(declare-fun f223 (S111 S12) S97)
(declare-fun f224 () S111)
(assert (not (= f1 f2)))
(assert (not (exists ((?v0 S2)) (= (f3 (f4 f5 f6) ?v0) f7))))
(assert (not (= (f8 (f4 f5 f6)) f1)))
(assert (not (= (f8 (f4 f5 f6)) f1)))
(assert (forall ((?v0 S6)) (= (f9 (f10 f11 f12) ?v0) f13)))
(assert (forall ((?v0 S5)) (= (f14 (f15 f16 f17) ?v0) f18)))
(assert (forall ((?v0 S13)) (= (f19 (f20 f21 f22) ?v0) f23)))
(assert (forall ((?v0 S17)) (= (f24 (f25 f26 f27) ?v0) f28)))
(assert (forall ((?v0 S21)) (= (f29 (f30 f31 f13) ?v0) f32)))
(assert (forall ((?v0 S24)) (= (f33 (f34 f35 f28) ?v0) f36)))
(assert (forall ((?v0 S27)) (= (f37 (f38 f39 f23) ?v0) f40)))
(assert (forall ((?v0 S2)) (= (f3 (f4 f5 f18) ?v0) f7)))
(assert (forall ((?v0 S3)) (= (= (f8 ?v0) f1) (forall ((?v1 S2) (?v2 S2)) (= (f3 ?v0 ?v1) (f3 ?v0 ?v2))))))
(assert (forall ((?v0 S17) (?v1 S17)) (= (= (f34 f35 ?v0) (f34 f35 ?v1)) (= ?v0 ?v1))))
(assert (forall ((?v0 S6) (?v1 S6)) (= (= (f30 f31 ?v0) (f30 f31 ?v1)) (= ?v0 ?v1))))
(assert (forall ((?v0 S5) (?v1 S5)) (= (= (f4 f5 ?v0) (f4 f5 ?v1)) (= ?v0 ?v1))))
(assert (forall ((?v0 S6)) (= (= f13 ?v0) (= ?v0 f13))))
(assert (forall ((?v0 S5)) (= (= f18 ?v0) (= ?v0 f18))))
(assert (forall ((?v0 S13)) (= (= f23 ?v0) (= ?v0 f23))))
(assert (forall ((?v0 S17)) (= (= f28 ?v0) (= ?v0 f28))))
(assert (forall ((?v0 S2)) (= (= f7 ?v0) (= ?v0 f7))))
(assert (forall ((?v0 S21)) (= (= f32 ?v0) (= ?v0 f32))))
(assert (forall ((?v0 S24)) (= (= f36 ?v0) (= ?v0 f36))))
(assert (forall ((?v0 S27)) (= (= f40 ?v0) (= ?v0 f40))))
(assert (forall ((?v0 S9) (?v1 S6)) (= (= (f9 (f10 f11 ?v0) ?v1) f13) (or (= ?v0 f12) (not (= (f41 (f42 f43 ?v1) ?v0) f40))))))
(assert (forall ((?v0 S12) (?v1 S5)) (= (= (f14 (f15 f16 ?v0) ?v1) f18) (or (= ?v0 f17) (not (= (f44 (f45 f46 ?v1) ?v0) f40))))))
(assert (forall ((?v0 S20) (?v1 S17)) (= (= (f24 (f25 f26 ?v0) ?v1) f28) (or (= ?v0 f27) (not (= (f47 (f48 f49 ?v1) ?v0) f40))))))
(assert (forall ((?v0 S6) (?v1 S21)) (= (= (f29 (f30 f31 ?v0) ?v1) f32) (or (= ?v0 f13) (not (= (f50 (f51 f52 ?v1) ?v0) f40))))))
(assert (forall ((?v0 S17) (?v1 S24)) (= (= (f33 (f34 f35 ?v0) ?v1) f36) (or (= ?v0 f28) (not (= (f53 (f54 f55 ?v1) ?v0) f40))))))
(assert (forall ((?v0 S5) (?v1 S2)) (= (= (f3 (f4 f5 ?v0) ?v1) f7) (or (= ?v0 f18) (not (= (f56 (f57 f58 ?v1) ?v0) f40))))))
(assert (forall ((?v0 S17) (?v1 S17) (?v2 S24)) (= (f33 (f34 f35 (f24 (f59 f60 ?v0) ?v1)) ?v2) (f33 (f34 f35 ?v0) (f33 (f34 f35 ?v1) ?v2)))))
(assert (forall ((?v0 S6) (?v1 S6) (?v2 S21)) (= (f29 (f30 f31 (f9 (f61 f62 ?v0) ?v1)) ?v2) (f29 (f30 f31 ?v0) (f29 (f30 f31 ?v1) ?v2)))))
(assert (forall ((?v0 S13) (?v1 S13) (?v2 S27)) (= (f37 (f38 f39 (f19 (f63 f64 ?v0) ?v1)) ?v2) (f37 (f38 f39 ?v0) (f37 (f38 f39 ?v1) ?v2)))))
(assert (forall ((?v0 S5) (?v1 S5) (?v2 S2)) (= (f3 (f4 f5 (f14 (f65 f66 ?v0) ?v1)) ?v2) (f3 (f4 f5 ?v0) (f3 (f4 f5 ?v1) ?v2)))))
(assert (not (= f67 f7)))
(assert (forall ((?v0 S46)) (=> (= (f68 ?v0) f1) (= (f69 ?v0 f7) f13))))
(assert (forall ((?v0 S47)) (=> (= (f70 ?v0) f1) (= (f71 ?v0 f7) f18))))
(assert (forall ((?v0 S48)) (=> (= (f72 ?v0) f1) (= (f73 ?v0 f7) f28))))
(assert (forall ((?v0 S49)) (=> (= (f74 ?v0) f1) (= (f75 ?v0 f32) f13))))
(assert (forall ((?v0 S50)) (=> (= (f76 ?v0) f1) (= (f77 ?v0 f32) f18))))
(assert (forall ((?v0 S51)) (=> (= (f78 ?v0) f1) (= (f79 ?v0 f32) f28))))
(assert (forall ((?v0 S52)) (=> (= (f80 ?v0) f1) (= (f81 ?v0 f36) f13))))
(assert (forall ((?v0 S53)) (=> (= (f82 ?v0) f1) (= (f83 ?v0 f36) f18))))
(assert (forall ((?v0 S54)) (=> (= (f84 ?v0) f1) (= (f85 ?v0 f36) f28))))
(assert (forall ((?v0 S55)) (=> (= (f86 ?v0) f1) (= (f87 ?v0 f13) f7))))
(assert (forall ((?v0 S56)) (=> (= (f88 ?v0) f1) (= (f89 ?v0 f18) f7))))
(assert (forall ((?v0 S57)) (=> (= (f90 ?v0) f1) (= (f91 ?v0 f28) f7))))
(assert (forall ((?v0 S58)) (=> (= (f92 ?v0) f1) (= (f93 ?v0 f13) f32))))
(assert (forall ((?v0 S59)) (=> (= (f94 ?v0) f1) (= (f95 ?v0 f18) f32))))
(assert (forall ((?v0 S60)) (=> (= (f96 ?v0) f1) (= (f97 ?v0 f28) f32))))
(assert (forall ((?v0 S61)) (=> (= (f98 ?v0) f1) (= (f99 ?v0 f13) f36))))
(assert (forall ((?v0 S62)) (=> (= (f100 ?v0) f1) (= (f101 ?v0 f18) f36))))
(assert (forall ((?v0 S63)) (=> (= (f102 ?v0) f1) (= (f103 ?v0 f28) f36))))
(assert (= (f104 f13 f105) f1))
(assert (= (f106 f18 f107) f1))
(assert (= (f108 f23 f109) f1))
(assert (= (f110 f28 f111) f1))
(assert (= (f112 f7 f113) f1))
(assert (= (f114 f32 f115) f1))
(assert (= (f116 f36 f117) f1))
(assert (= (f118 f40 f119) f1))
(assert (= (f120 f13) f1))
(assert (= (f121 f18) f1))
(assert (= (f122 f23) f1))
(assert (= (f123 f28) f1))
(assert (= (f124 f7) f1))
(assert (= (f125 f32) f1))
(assert (= (f126 f36) f1))
(assert (= (f127 f40) f1))
(assert (forall ((?v0 S6)) (= (= (f120 ?v0) f1) (= ?v0 f13))))
(assert (forall ((?v0 S5)) (= (= (f121 ?v0) f1) (= ?v0 f18))))
(assert (forall ((?v0 S13)) (= (= (f122 ?v0) f1) (= ?v0 f23))))
(assert (forall ((?v0 S17)) (= (= (f123 ?v0) f1) (= ?v0 f28))))
(assert (forall ((?v0 S2)) (= (= (f124 ?v0) f1) (= ?v0 f7))))
(assert (forall ((?v0 S21)) (= (= (f125 ?v0) f1) (= ?v0 f32))))
(assert (forall ((?v0 S24)) (= (= (f126 ?v0) f1) (= ?v0 f36))))
(assert (forall ((?v0 S27)) (= (= (f127 ?v0) f1) (= ?v0 f40))))
(assert (forall ((?v0 S5)) (= (f14 (f65 f66 f18) ?v0) f18)))
(assert (forall ((?v0 S6)) (= (f9 (f61 f62 f13) ?v0) f13)))
(assert (forall ((?v0 S13)) (= (f19 (f63 f64 f23) ?v0) f23)))
(assert (forall ((?v0 S17)) (= (f24 (f59 f60 f28) ?v0) f28)))
(assert (forall ((?v0 S17)) (= (= (f34 f35 ?v0) (f34 f35 f28)) (= ?v0 f28))))
(assert (forall ((?v0 S6)) (= (= (f30 f31 ?v0) (f30 f31 f13)) (= ?v0 f13))))
(assert (forall ((?v0 S5)) (= (= (f4 f5 ?v0) (f4 f5 f18)) (= ?v0 f18))))
(assert (forall ((?v0 S6)) (= (= (f50 f128 ?v0) f40) (= ?v0 f13))))
(assert (forall ((?v0 S5)) (= (= (f56 f129 ?v0) f40) (= ?v0 f18))))
(assert (forall ((?v0 S13)) (= (= (f130 f131 ?v0) f40) (= ?v0 f23))))
(assert (forall ((?v0 S17)) (= (= (f53 f132 ?v0) f40) (= ?v0 f28))))
(assert (forall ((?v0 S6) (?v1 S27)) (= (= (f133 (f134 f135 ?v0) ?v1) f12) (= ?v0 f13))))
(assert (forall ((?v0 S5) (?v1 S27)) (= (= (f136 (f137 f138 ?v0) ?v1) f17) (= ?v0 f18))))
(assert (forall ((?v0 S13) (?v1 S27)) (= (= (f139 (f140 f141 ?v0) ?v1) f22) (= ?v0 f23))))
(assert (forall ((?v0 S17) (?v1 S27)) (= (= (f142 (f143 f144 ?v0) ?v1) f27) (= ?v0 f28))))
(assert (forall ((?v0 S2) (?v1 S27)) (= (= (f145 (f146 f147 ?v0) ?v1) f18) (= ?v0 f7))))
(assert (forall ((?v0 S21) (?v1 S27)) (= (= (f148 (f149 f150 ?v0) ?v1) f13) (= ?v0 f32))))
(assert (forall ((?v0 S24) (?v1 S27)) (= (= (f151 (f152 f153 ?v0) ?v1) f28) (= ?v0 f36))))
(assert (forall ((?v0 S27) (?v1 S27)) (= (= (f154 (f155 f156 ?v0) ?v1) f23) (= ?v0 f40))))
(assert (forall ((?v0 S27)) (= (f133 (f134 f135 f13) ?v0) f12)))
(assert (forall ((?v0 S27)) (= (f136 (f137 f138 f18) ?v0) f17)))
(assert (forall ((?v0 S27)) (= (f139 (f140 f141 f23) ?v0) f22)))
(assert (forall ((?v0 S27)) (= (f142 (f143 f144 f28) ?v0) f27)))
(assert (forall ((?v0 S27)) (= (f145 (f146 f147 f7) ?v0) f18)))
(assert (forall ((?v0 S27)) (= (f148 (f149 f150 f32) ?v0) f13)))
(assert (forall ((?v0 S27)) (= (f151 (f152 f153 f36) ?v0) f28)))
(assert (forall ((?v0 S27)) (= (f154 (f155 f156 f40) ?v0) f23)))
(assert (forall ((?v0 S21)) (= (f75 (f157 f158 f13) ?v0) f13)))
(assert (forall ((?v0 S2)) (= (f71 (f159 f160 f18) ?v0) f18)))
(assert (forall ((?v0 S27)) (= (f154 (f161 f162 f23) ?v0) f23)))
(assert (forall ((?v0 S24)) (= (f85 (f163 f164 f28) ?v0) f28)))
(assert (forall ((?v0 S6) (?v1 S21)) (= (= (f75 (f157 f158 ?v0) ?v1) f13) (= ?v0 f13))))
(assert (forall ((?v0 S5) (?v1 S2)) (= (= (f71 (f159 f160 ?v0) ?v1) f18) (= ?v0 f18))))
(assert (forall ((?v0 S13) (?v1 S27)) (= (= (f154 (f161 f162 ?v0) ?v1) f23) (= ?v0 f23))))
(assert (forall ((?v0 S17) (?v1 S24)) (= (= (f85 (f163 f164 ?v0) ?v1) f28) (= ?v0 f28))))
(assert (forall ((?v0 S21)) (= (f75 (f157 f165 f13) ?v0) f13)))
(assert (forall ((?v0 S2)) (= (f71 (f159 f166 f18) ?v0) f18)))
(assert (forall ((?v0 S27)) (= (f154 (f161 f167 f23) ?v0) f23)))
(assert (forall ((?v0 S24)) (= (f85 (f163 f168 f28) ?v0) f28)))
(assert (forall ((?v0 S21)) (= (f169 (f170 f171 f32) ?v0) f7)))
(assert (forall ((?v0 S6) (?v1 S9)) (= (= (f172 (f173 f174 ?v0) ?v1) f12) (or (= ?v0 f13) (= ?v1 f12)))))
(assert (forall ((?v0 S5) (?v1 S12)) (= (= (f175 (f176 f177 ?v0) ?v1) f17) (or (= ?v0 f18) (= ?v1 f17)))))
(assert (forall ((?v0 S17) (?v1 S20)) (= (= (f178 (f179 f180 ?v0) ?v1) f27) (or (= ?v0 f28) (= ?v1 f27)))))
(assert (forall ((?v0 S2) (?v1 S5)) (= (= (f14 (f181 f182 ?v0) ?v1) f18) (or (= ?v0 f7) (= ?v1 f18)))))
(assert (forall ((?v0 S21) (?v1 S6)) (= (= (f9 (f183 f184 ?v0) ?v1) f13) (or (= ?v0 f32) (= ?v1 f13)))))
(assert (forall ((?v0 S24) (?v1 S17)) (= (= (f24 (f185 f186 ?v0) ?v1) f28) (or (= ?v0 f36) (= ?v1 f28)))))
(assert (forall ((?v0 S27) (?v1 S27) (?v2 S27)) (= (= (f154 (f155 f156 ?v0) ?v1) (f154 (f155 f156 ?v2) ?v1)) (= ?v0 ?v2))))
(assert (forall ((?v0 S24) (?v1 S27) (?v2 S24)) (= (= (f151 (f152 f153 ?v0) ?v1) (f151 (f152 f153 ?v2) ?v1)) (= ?v0 ?v2))))
(assert (forall ((?v0 S21) (?v1 S27) (?v2 S21)) (= (= (f148 (f149 f150 ?v0) ?v1) (f148 (f149 f150 ?v2) ?v1)) (= ?v0 ?v2))))
(assert (forall ((?v0 S2) (?v1 S27) (?v2 S2)) (= (= (f145 (f146 f147 ?v0) ?v1) (f145 (f146 f147 ?v2) ?v1)) (= ?v0 ?v2))))
(assert (forall ((?v0 S27) (?v1 S13) (?v2 S27) (?v3 S13)) (= (= (f19 (f187 f188 ?v0) ?v1) (f19 (f187 f188 ?v2) ?v3)) (and (= ?v0 ?v2) (= ?v1 ?v3)))))
(assert (forall ((?v0 S24) (?v1 S17) (?v2 S24) (?v3 S17)) (= (= (f24 (f185 f189 ?v0) ?v1) (f24 (f185 f189 ?v2) ?v3)) (and (= ?v0 ?v2) (= ?v1 ?v3)))))
(assert (forall ((?v0 S21) (?v1 S6) (?v2 S21) (?v3 S6)) (= (= (f9 (f183 f190 ?v0) ?v1) (f9 (f183 f190 ?v2) ?v3)) (and (= ?v0 ?v2) (= ?v1 ?v3)))))
(assert (forall ((?v0 S2) (?v1 S5) (?v2 S2) (?v3 S5)) (= (= (f14 (f181 f191 ?v0) ?v1) (f14 (f181 f191 ?v2) ?v3)) (and (= ?v0 ?v2) (= ?v1 ?v3)))))
(assert (forall ((?v0 S27) (?v1 S13) (?v2 S27)) (=> (= (f19 (f187 f192 ?v0) ?v1) (f19 (f187 f188 ?v2) ?v1)) (= ?v1 f23))))
(assert (forall ((?v0 S24) (?v1 S17) (?v2 S24)) (=> (= (f24 (f185 f186 ?v0) ?v1) (f24 (f185 f189 ?v2) ?v1)) (= ?v1 f28))))
(assert (forall ((?v0 S21) (?v1 S6) (?v2 S21)) (=> (= (f9 (f183 f184 ?v0) ?v1) (f9 (f183 f190 ?v2) ?v1)) (= ?v1 f13))))
(assert (forall ((?v0 S2) (?v1 S5) (?v2 S2)) (=> (= (f14 (f181 f182 ?v0) ?v1) (f14 (f181 f191 ?v2) ?v1)) (= ?v1 f18))))
(assert (forall ((?v0 S27) (?v1 S27)) (let ((?v_0 (f19 (f187 f188 ?v0) f23))) (= (f154 (f161 f162 ?v_0) ?v1) ?v_0))))
(assert (forall ((?v0 S24) (?v1 S24)) (let ((?v_0 (f24 (f185 f189 ?v0) f28))) (= (f85 (f163 f164 ?v_0) ?v1) ?v_0))))
(assert (forall ((?v0 S21) (?v1 S21)) (let ((?v_0 (f9 (f183 f190 ?v0) f13))) (= (f75 (f157 f158 ?v_0) ?v1) ?v_0))))
(assert (forall ((?v0 S2) (?v1 S2)) (let ((?v_0 (f14 (f181 f191 ?v0) f18))) (= (f71 (f159 f160 ?v_0) ?v1) ?v_0))))
(assert (forall ((?v0 S24) (?v1 S17) (?v2 S24)) (= (f85 (f163 f168 (f24 (f185 f189 ?v0) ?v1)) ?v2) (f24 (f185 f189 (f33 (f34 f35 ?v1) ?v2)) (f85 (f163 f168 ?v1) ?v2)))))
(assert (forall ((?v0 S21) (?v1 S6) (?v2 S21)) (= (f75 (f157 f165 (f9 (f183 f190 ?v0) ?v1)) ?v2) (f9 (f183 f190 (f29 (f30 f31 ?v1) ?v2)) (f75 (f157 f165 ?v1) ?v2)))))
(assert (forall ((?v0 S27) (?v1 S13) (?v2 S27)) (= (f154 (f161 f167 (f19 (f187 f188 ?v0) ?v1)) ?v2) (f19 (f187 f188 (f37 (f38 f39 ?v1) ?v2)) (f154 (f161 f167 ?v1) ?v2)))))
(assert (forall ((?v0 S2) (?v1 S5) (?v2 S2)) (= (f71 (f159 f166 (f14 (f181 f191 ?v0) ?v1)) ?v2) (f14 (f181 f191 (f3 (f4 f5 ?v1) ?v2)) (f71 (f159 f166 ?v1) ?v2)))))
(assert (forall ((?v0 S27)) (= (f154 (f155 f156 ?v0) f40) (f19 (f187 f188 ?v0) f23))))
(assert (forall ((?v0 S24)) (= (f151 (f152 f153 ?v0) f40) (f24 (f185 f189 ?v0) f28))))
(assert (forall ((?v0 S21)) (= (f148 (f149 f150 ?v0) f40) (f9 (f183 f190 ?v0) f13))))
(assert (forall ((?v0 S2)) (= (f145 (f146 f147 ?v0) f40) (f14 (f181 f191 ?v0) f18))))
(assert (forall ((?v0 S21)) (= (f9 (f183 f184 ?v0) f13) f13)))
(assert (forall ((?v0 S2)) (= (f14 (f181 f182 ?v0) f18) f18)))
(assert (forall ((?v0 S27)) (= (f19 (f187 f192 ?v0) f23) f23)))
(assert (forall ((?v0 S24)) (= (f24 (f185 f186 ?v0) f28) f28)))
(assert (= (f172 (f173 f193 f13) f12) f12))
(assert (= (f175 (f176 f194 f18) f17) f17))
(assert (= (f195 (f196 f197 f23) f22) f22))
(assert (= (f178 (f179 f198 f28) f27) f27))
(assert (= (f14 (f181 f191 f7) f18) f18))
(assert (= (f9 (f183 f190 f32) f13) f13))
(assert (= (f24 (f185 f189 f36) f28) f28))
(assert (= (f19 (f187 f188 f40) f23) f23))
(assert (forall ((?v0 S6) (?v1 S9)) (= (= (f172 (f173 f193 ?v0) ?v1) f12) (and (= ?v0 f13) (= ?v1 f12)))))
(assert (forall ((?v0 S5) (?v1 S12)) (= (= (f175 (f176 f194 ?v0) ?v1) f17) (and (= ?v0 f18) (= ?v1 f17)))))
(assert (forall ((?v0 S13) (?v1 S16)) (= (= (f195 (f196 f197 ?v0) ?v1) f22) (and (= ?v0 f23) (= ?v1 f22)))))
(assert (forall ((?v0 S17) (?v1 S20)) (= (= (f178 (f179 f198 ?v0) ?v1) f27) (and (= ?v0 f28) (= ?v1 f27)))))
(assert (forall ((?v0 S2) (?v1 S5)) (= (= (f14 (f181 f191 ?v0) ?v1) f18) (and (= ?v0 f7) (= ?v1 f18)))))
(assert (forall ((?v0 S21) (?v1 S6)) (= (= (f9 (f183 f190 ?v0) ?v1) f13) (and (= ?v0 f32) (= ?v1 f13)))))
(assert (forall ((?v0 S24) (?v1 S17)) (= (= (f24 (f185 f189 ?v0) ?v1) f28) (and (= ?v0 f36) (= ?v1 f28)))))
(assert (forall ((?v0 S27) (?v1 S13)) (= (= (f19 (f187 f188 ?v0) ?v1) f23) (and (= ?v0 f40) (= ?v1 f23)))))
(assert (forall ((?v0 S9)) (= (f172 (f173 f174 f13) ?v0) f12)))
(assert (forall ((?v0 S12)) (= (f175 (f176 f177 f18) ?v0) f17)))
(assert (forall ((?v0 S16)) (= (f195 (f196 f199 f23) ?v0) f22)))
(assert (forall ((?v0 S20)) (= (f178 (f179 f180 f28) ?v0) f27)))
(assert (forall ((?v0 S5)) (= (f14 (f181 f182 f7) ?v0) f18)))
(assert (forall ((?v0 S6)) (= (f9 (f183 f184 f32) ?v0) f13)))
(assert (forall ((?v0 S17)) (= (f24 (f185 f186 f36) ?v0) f28)))
(assert (forall ((?v0 S13)) (= (f19 (f187 f192 f40) ?v0) f23)))
(assert (forall ((?v0 S66) (?v1 S13)) (=> (= (f200 ?v0 f23) f1) (=> (forall ((?v2 S27) (?v3 S13)) (=> (= (f200 ?v0 ?v3) f1) (= (f200 ?v0 (f19 (f187 f188 ?v2) ?v3)) f1))) (= (f200 ?v0 ?v1) f1)))))
(assert (forall ((?v0 S67) (?v1 S17)) (=> (= (f201 ?v0 f28) f1) (=> (forall ((?v2 S24) (?v3 S17)) (=> (= (f201 ?v0 ?v3) f1) (= (f201 ?v0 (f24 (f185 f189 ?v2) ?v3)) f1))) (= (f201 ?v0 ?v1) f1)))))
(assert (forall ((?v0 S64) (?v1 S6)) (=> (= (f202 ?v0 f13) f1) (=> (forall ((?v2 S21) (?v3 S6)) (=> (= (f202 ?v0 ?v3) f1) (= (f202 ?v0 (f9 (f183 f190 ?v2) ?v3)) f1))) (= (f202 ?v0 ?v1) f1)))))
(assert (forall ((?v0 S65) (?v1 S5)) (=> (= (f203 ?v0 f18) f1) (=> (forall ((?v2 S2) (?v3 S5)) (=> (= (f203 ?v0 ?v3) f1) (= (f203 ?v0 (f14 (f181 f191 ?v2) ?v3)) f1))) (= (f203 ?v0 ?v1) f1)))))
(assert (forall ((?v0 S13)) (=> (forall ((?v1 S27) (?v2 S13)) (=> (= ?v0 (f19 (f187 f188 ?v1) ?v2)) false)) false)))
(assert (forall ((?v0 S17)) (=> (forall ((?v1 S24) (?v2 S17)) (=> (= ?v0 (f24 (f185 f189 ?v1) ?v2)) false)) false)))
(assert (forall ((?v0 S6)) (=> (forall ((?v1 S21) (?v2 S6)) (=> (= ?v0 (f9 (f183 f190 ?v1) ?v2)) false)) false)))
(assert (forall ((?v0 S5)) (=> (forall ((?v1 S2) (?v2 S5)) (=> (= ?v0 (f14 (f181 f191 ?v1) ?v2)) false)) false)))
(assert (forall ((?v0 S17) (?v1 S24)) (let ((?v_0 (f85 (f163 f168 ?v0) ?v1))) (= (f24 (f59 f204 ?v0) (f24 (f185 f186 ?v1) ?v_0)) (f24 (f185 f189 (f33 (f34 f35 ?v0) ?v1)) ?v_0)))))
(assert (forall ((?v0 S6) (?v1 S21)) (let ((?v_0 (f75 (f157 f165 ?v0) ?v1))) (= (f9 (f61 f205 ?v0) (f9 (f183 f184 ?v1) ?v_0)) (f9 (f183 f190 (f29 (f30 f31 ?v0) ?v1)) ?v_0)))))
(assert (forall ((?v0 S13) (?v1 S27)) (let ((?v_0 (f154 (f161 f167 ?v0) ?v1))) (= (f19 (f63 f206 ?v0) (f19 (f187 f192 ?v1) ?v_0)) (f19 (f187 f188 (f37 (f38 f39 ?v0) ?v1)) ?v_0)))))
(assert (forall ((?v0 S5) (?v1 S2)) (let ((?v_0 (f71 (f159 f166 ?v0) ?v1))) (= (f14 (f65 f207 ?v0) (f14 (f181 f182 ?v1) ?v_0)) (f14 (f181 f191 (f3 (f4 f5 ?v0) ?v1)) ?v_0)))))
(assert (forall ((?v0 S17) (?v1 S24) (?v2 S17) (?v3 S24)) (=> (= (f24 (f59 f204 ?v0) (f24 (f185 f186 ?v1) ?v2)) (f24 (f185 f189 ?v3) ?v2)) (and (= ?v3 (f33 (f34 f35 ?v0) ?v1)) (= ?v2 (f85 (f163 f168 ?v0) ?v1))))))
(assert (forall ((?v0 S6) (?v1 S21) (?v2 S6) (?v3 S21)) (=> (= (f9 (f61 f205 ?v0) (f9 (f183 f184 ?v1) ?v2)) (f9 (f183 f190 ?v3) ?v2)) (and (= ?v3 (f29 (f30 f31 ?v0) ?v1)) (= ?v2 (f75 (f157 f165 ?v0) ?v1))))))
(assert (forall ((?v0 S13) (?v1 S27) (?v2 S13) (?v3 S27)) (=> (= (f19 (f63 f206 ?v0) (f19 (f187 f192 ?v1) ?v2)) (f19 (f187 f188 ?v3) ?v2)) (and (= ?v3 (f37 (f38 f39 ?v0) ?v1)) (= ?v2 (f154 (f161 f167 ?v0) ?v1))))))
(assert (forall ((?v0 S5) (?v1 S2) (?v2 S5) (?v3 S2)) (=> (= (f14 (f65 f207 ?v0) (f14 (f181 f182 ?v1) ?v2)) (f14 (f181 f191 ?v3) ?v2)) (and (= ?v3 (f3 (f4 f5 ?v0) ?v1)) (= ?v2 (f71 (f159 f166 ?v0) ?v1))))))
(assert (forall ((?v0 S27) (?v1 S13) (?v2 S27)) (let ((?v_0 (f187 f188 ?v0)) (?v_1 (f154 (f161 f162 ?v1) ?v2))) (= (f154 (f161 f162 (f19 ?v_0 ?v1)) ?v2) (f19 (f63 f206 (f19 (f187 f192 ?v2) ?v_1)) (f19 ?v_0 ?v_1))))))
(assert (forall ((?v0 S24) (?v1 S17) (?v2 S24)) (let ((?v_0 (f185 f189 ?v0)) (?v_1 (f85 (f163 f164 ?v1) ?v2))) (= (f85 (f163 f164 (f24 ?v_0 ?v1)) ?v2) (f24 (f59 f204 (f24 (f185 f186 ?v2) ?v_1)) (f24 ?v_0 ?v_1))))))
(assert (forall ((?v0 S21) (?v1 S6) (?v2 S21)) (let ((?v_0 (f183 f190 ?v0)) (?v_1 (f75 (f157 f158 ?v1) ?v2))) (= (f75 (f157 f158 (f9 ?v_0 ?v1)) ?v2) (f9 (f61 f205 (f9 (f183 f184 ?v2) ?v_1)) (f9 ?v_0 ?v_1))))))
(assert (forall ((?v0 S2) (?v1 S5) (?v2 S2)) (let ((?v_0 (f181 f191 ?v0)) (?v_1 (f71 (f159 f160 ?v1) ?v2))) (= (f71 (f159 f160 (f14 ?v_0 ?v1)) ?v2) (f14 (f65 f207 (f14 (f181 f182 ?v2) ?v_1)) (f14 ?v_0 ?v_1))))))
(assert (forall ((?v0 S6) (?v1 S27)) (let ((?v_0 (f134 f135 ?v0))) (= (f133 ?v_0 (f37 f208 ?v1)) (f172 (f173 f193 f13) (f133 ?v_0 ?v1))))))
(assert (forall ((?v0 S5) (?v1 S27)) (let ((?v_0 (f137 f138 ?v0))) (= (f136 ?v_0 (f37 f208 ?v1)) (f175 (f176 f194 f18) (f136 ?v_0 ?v1))))))
(assert (forall ((?v0 S13) (?v1 S27)) (let ((?v_0 (f140 f141 ?v0))) (= (f139 ?v_0 (f37 f208 ?v1)) (f195 (f196 f197 f23) (f139 ?v_0 ?v1))))))
(assert (forall ((?v0 S17) (?v1 S27)) (let ((?v_0 (f143 f144 ?v0))) (= (f142 ?v_0 (f37 f208 ?v1)) (f178 (f179 f198 f28) (f142 ?v_0 ?v1))))))
(assert (forall ((?v0 S2) (?v1 S27)) (let ((?v_0 (f146 f147 ?v0))) (= (f145 ?v_0 (f37 f208 ?v1)) (f14 (f181 f191 f7) (f145 ?v_0 ?v1))))))
(assert (forall ((?v0 S21) (?v1 S27)) (let ((?v_0 (f149 f150 ?v0))) (= (f148 ?v_0 (f37 f208 ?v1)) (f9 (f183 f190 f32) (f148 ?v_0 ?v1))))))
(assert (forall ((?v0 S24) (?v1 S27)) (let ((?v_0 (f152 f153 ?v0))) (= (f151 ?v_0 (f37 f208 ?v1)) (f24 (f185 f189 f36) (f151 ?v_0 ?v1))))))
(assert (forall ((?v0 S27) (?v1 S27)) (let ((?v_0 (f155 f156 ?v0))) (= (f154 ?v_0 (f37 f208 ?v1)) (f19 (f187 f188 f40) (f154 ?v_0 ?v1))))))
(assert (forall ((?v0 S27) (?v1 S13) (?v2 S27)) (=> (= (f19 (f63 f206 (f19 (f187 f192 ?v0) ?v1)) (f19 (f187 f188 ?v2) ?v1)) f23) (= ?v1 f23))))
(assert (forall ((?v0 S24) (?v1 S17) (?v2 S24)) (=> (= (f24 (f59 f204 (f24 (f185 f186 ?v0) ?v1)) (f24 (f185 f189 ?v2) ?v1)) f28) (= ?v1 f28))))
(assert (forall ((?v0 S21) (?v1 S6) (?v2 S21)) (=> (= (f9 (f61 f205 (f9 (f183 f184 ?v0) ?v1)) (f9 (f183 f190 ?v2) ?v1)) f13) (= ?v1 f13))))
(assert (forall ((?v0 S2) (?v1 S5) (?v2 S2)) (=> (= (f14 (f65 f207 (f14 (f181 f182 ?v0) ?v1)) (f14 (f181 f191 ?v2) ?v1)) f18) (= ?v1 f18))))
(assert (forall ((?v0 S6) (?v1 S21)) (= (= (f75 (f157 f165 ?v0) ?v1) f13) (= (f50 f209 ?v0) f40))))
(assert (forall ((?v0 S5) (?v1 S2)) (= (= (f71 (f159 f166 ?v0) ?v1) f18) (= (f56 f210 ?v0) f40))))
(assert (forall ((?v0 S13) (?v1 S27)) (= (= (f154 (f161 f167 ?v0) ?v1) f23) (= (f130 f211 ?v0) f40))))
(assert (forall ((?v0 S17) (?v1 S24)) (= (= (f85 (f163 f168 ?v0) ?v1) f28) (= (f53 f212 ?v0) f40))))
(assert (forall ((?v0 S2) (?v1 S5) (?v2 S5)) (= (= (f203 (f213 (f14 (f181 f182 ?v0) ?v1)) ?v2) f1) (ite (= ?v0 f7) (= ?v2 f18) (= (f203 (f213 ?v1) ?v2) f1)))))
(assert (forall ((?v0 S21) (?v1 S6) (?v2 S6)) (= (= (f202 (f214 (f9 (f183 f184 ?v0) ?v1)) ?v2) f1) (ite (= ?v0 f32) (= ?v2 f13) (= (f202 (f214 ?v1) ?v2) f1)))))
(assert (forall ((?v0 S21) (?v1 S21) (?v2 S6)) (= (f9 (f183 f184 (f29 (f215 f216 ?v0) ?v1)) ?v2) (f9 (f61 f205 (f9 (f183 f184 ?v0) ?v2)) (f9 (f183 f184 ?v1) ?v2)))))
(assert (forall ((?v0 S2) (?v1 S2) (?v2 S5)) (= (f14 (f181 f182 (f3 (f217 f218 ?v0) ?v1)) ?v2) (f14 (f65 f207 (f14 (f181 f182 ?v0) ?v2)) (f14 (f181 f182 ?v1) ?v2)))))
(assert (forall ((?v0 S27) (?v1 S27) (?v2 S13)) (= (f19 (f187 f192 (f37 (f219 f220 ?v0) ?v1)) ?v2) (f19 (f63 f206 (f19 (f187 f192 ?v0) ?v2)) (f19 (f187 f192 ?v1) ?v2)))))
(assert (forall ((?v0 S24) (?v1 S24) (?v2 S17)) (= (f24 (f185 f186 (f33 (f221 f222 ?v0) ?v1)) ?v2) (f24 (f59 f204 (f24 (f185 f186 ?v0) ?v2)) (f24 (f185 f186 ?v1) ?v2)))))
(assert (forall ((?v0 S5) (?v1 S5) (?v2 S12)) (= (f175 (f176 f177 (f14 (f65 f207 ?v0) ?v1)) ?v2) (f175 (f223 f224 (f175 (f176 f177 ?v0) ?v2)) (f175 (f176 f177 ?v1) ?v2)))))
(assert (forall ((?v0 S27) (?v1 S13) (?v2 S27) (?v3 S13)) (= (f19 (f63 f206 (f19 (f187 f188 ?v0) ?v1)) (f19 (f187 f188 ?v2) ?v3)) (f19 (f187 f188 (f37 (f219 f220 ?v0) ?v2)) (f19 (f63 f206 ?v1) ?v3)))))
(assert (forall ((?v0 S24) (?v1 S17) (?v2 S24) (?v3 S17)) (= (f24 (f59 f204 (f24 (f185 f189 ?v0) ?v1)) (f24 (f185 f189 ?v2) ?v3)) (f24 (f185 f189 (f33 (f221 f222 ?v0) ?v2)) (f24 (f59 f204 ?v1) ?v3)))))
(assert (forall ((?v0 S21) (?v1 S6) (?v2 S21) (?v3 S6)) (= (f9 (f61 f205 (f9 (f183 f190 ?v0) ?v1)) (f9 (f183 f190 ?v2) ?v3)) (f9 (f183 f190 (f29 (f215 f216 ?v0) ?v2)) (f9 (f61 f205 ?v1) ?v3)))))
(assert (forall ((?v0 S2) (?v1 S5) (?v2 S2) (?v3 S5)) (= (f14 (f65 f207 (f14 (f181 f191 ?v0) ?v1)) (f14 (f181 f191 ?v2) ?v3)) (f14 (f181 f191 (f3 (f217 f218 ?v0) ?v2)) (f14 (f65 f207 ?v1) ?v3)))))
(assert (forall ((?v0 S5) (?v1 S12) (?v2 S5) (?v3 S12)) (= (f175 (f223 f224 (f175 (f176 f194 ?v0) ?v1)) (f175 (f176 f194 ?v2) ?v3)) (f175 (f176 f194 (f14 (f65 f207 ?v0) ?v2)) (f175 (f223 f224 ?v1) ?v3)))))
(assert (forall ((?v0 S17) (?v1 S17) (?v2 S24)) (= (f33 (f34 f35 (f24 (f59 f204 ?v0) ?v1)) ?v2) (f33 (f221 f222 (f33 (f34 f35 ?v0) ?v2)) (f33 (f34 f35 ?v1) ?v2)))))
(assert (forall ((?v0 S6) (?v1 S6) (?v2 S21)) (= (f29 (f30 f31 (f9 (f61 f205 ?v0) ?v1)) ?v2) (f29 (f215 f216 (f29 (f30 f31 ?v0) ?v2)) (f29 (f30 f31 ?v1) ?v2)))))
(assert (forall ((?v0 S13) (?v1 S13) (?v2 S27)) (= (f37 (f38 f39 (f19 (f63 f206 ?v0) ?v1)) ?v2) (f37 (f219 f220 (f37 (f38 f39 ?v0) ?v2)) (f37 (f38 f39 ?v1) ?v2)))))
(assert (forall ((?v0 S12) (?v1 S12) (?v2 S5)) (= (f14 (f15 f16 (f175 (f223 f224 ?v0) ?v1)) ?v2) (f14 (f65 f207 (f14 (f15 f16 ?v0) ?v2)) (f14 (f15 f16 ?v1) ?v2)))))
(assert (forall ((?v0 S5) (?v1 S5) (?v2 S2)) (= (f3 (f4 f5 (f14 (f65 f207 ?v0) ?v1)) ?v2) (f3 (f217 f218 (f3 (f4 f5 ?v0) ?v2)) (f3 (f4 f5 ?v1) ?v2)))))
(assert (forall ((?v0 S27) (?v1 S27) (?v2 S27)) (=> (= (f37 (f219 f220 ?v0) ?v1) (f37 (f219 f220 ?v2) ?v1)) (= ?v0 ?v2))))
(assert (forall ((?v0 S24) (?v1 S24) (?v2 S24)) (=> (= (f33 (f221 f222 ?v0) ?v1) (f33 (f221 f222 ?v2) ?v1)) (= ?v0 ?v2))))
(assert (forall ((?v0 S21) (?v1 S21) (?v2 S21)) (=> (= (f29 (f215 f216 ?v0) ?v1) (f29 (f215 f216 ?v2) ?v1)) (= ?v0 ?v2))))
(assert (forall ((?v0 S2) (?v1 S2) (?v2 S2)) (=> (= (f3 (f217 f218 ?v0) ?v1) (f3 (f217 f218 ?v2) ?v1)) (= ?v0 ?v2))))
(assert (forall ((?v0 S5) (?v1 S5) (?v2 S5)) (=> (= (f14 (f65 f207 ?v0) ?v1) (f14 (f65 f207 ?v2) ?v1)) (= ?v0 ?v2))))
(assert (forall ((?v0 S27) (?v1 S27) (?v2 S27)) (let ((?v_0 (f219 f220 ?v0))) (=> (= (f37 ?v_0 ?v1) (f37 ?v_0 ?v2)) (= ?v1 ?v2)))))
(assert (forall ((?v0 S24) (?v1 S24) (?v2 S24)) (let ((?v_0 (f221 f222 ?v0))) (=> (= (f33 ?v_0 ?v1) (f33 ?v_0 ?v2)) (= ?v1 ?v2)))))
(assert (forall ((?v0 S21) (?v1 S21) (?v2 S21)) (let ((?v_0 (f215 f216 ?v0))) (=> (= (f29 ?v_0 ?v1) (f29 ?v_0 ?v2)) (= ?v1 ?v2)))))
(assert (forall ((?v0 S2) (?v1 S2) (?v2 S2)) (let ((?v_0 (f217 f218 ?v0))) (=> (= (f3 ?v_0 ?v1) (f3 ?v_0 ?v2)) (= ?v1 ?v2)))))
(assert (forall ((?v0 S5) (?v1 S5) (?v2 S5)) (let ((?v_0 (f65 f207 ?v0))) (=> (= (f14 ?v_0 ?v1) (f14 ?v_0 ?v2)) (= ?v1 ?v2)))))
(assert (forall ((?v0 S27) (?v1 S27) (?v2 S27)) (let ((?v_0 (f219 f220 ?v0))) (=> (= (f37 ?v_0 ?v1) (f37 ?v_0 ?v2)) (= ?v1 ?v2)))))
(assert (forall ((?v0 S24) (?v1 S24) (?v2 S24)) (let ((?v_0 (f221 f222 ?v0))) (=> (= (f33 ?v_0 ?v1) (f33 ?v_0 ?v2)) (= ?v1 ?v2)))))
(assert (forall ((?v0 S21) (?v1 S21) (?v2 S21)) (let ((?v_0 (f215 f216 ?v0))) (=> (= (f29 ?v_0 ?v1) (f29 ?v_0 ?v2)) (= ?v1 ?v2)))))
(assert (forall ((?v0 S2) (?v1 S2) (?v2 S2)) (let ((?v_0 (f217 f218 ?v0))) (=> (= (f3 ?v_0 ?v1) (f3 ?v_0 ?v2)) (= ?v1 ?v2)))))
(assert (forall ((?v0 S5) (?v1 S5) (?v2 S5)) (let ((?v_0 (f65 f207 ?v0))) (=> (= (f14 ?v_0 ?v1) (f14 ?v_0 ?v2)) (= ?v1 ?v2)))))
(assert (forall ((?v0 S27) (?v1 S27)) (=> (= (f37 f208 ?v0) (f37 f208 ?v1)) (= ?v0 ?v1))))
(assert (forall ((?v0 S27) (?v1 S27) (?v2 S27)) (= (= (f37 (f219 f220 ?v0) ?v1) (f37 (f219 f220 ?v2) ?v1)) (= ?v0 ?v2))))
(assert (forall ((?v0 S24) (?v1 S24) (?v2 S24)) (= (= (f33 (f221 f222 ?v0) ?v1) (f33 (f221 f222 ?v2) ?v1)) (= ?v0 ?v2))))
(assert (forall ((?v0 S21) (?v1 S21) (?v2 S21)) (= (= (f29 (f215 f216 ?v0) ?v1) (f29 (f215 f216 ?v2) ?v1)) (= ?v0 ?v2))))
(assert (forall ((?v0 S2) (?v1 S2) (?v2 S2)) (= (= (f3 (f217 f218 ?v0) ?v1) (f3 (f217 f218 ?v2) ?v1)) (= ?v0 ?v2))))
(assert (forall ((?v0 S5) (?v1 S5) (?v2 S5)) (= (= (f14 (f65 f207 ?v0) ?v1) (f14 (f65 f207 ?v2) ?v1)) (= ?v0 ?v2))))
(assert (forall ((?v0 S24) (?v1 S24) (?v2 S24)) (let ((?v_0 (f221 f222 ?v0))) (= (= (f33 ?v_0 ?v1) (f33 ?v_0 ?v2)) (= ?v1 ?v2)))))
(assert (forall ((?v0 S21) (?v1 S21) (?v2 S21)) (let ((?v_0 (f215 f216 ?v0))) (= (= (f29 ?v_0 ?v1) (f29 ?v_0 ?v2)) (= ?v1 ?v2)))))
(assert (forall ((?v0 S2) (?v1 S2) (?v2 S2)) (let ((?v_0 (f217 f218 ?v0))) (= (= (f3 ?v_0 ?v1) (f3 ?v_0 ?v2)) (= ?v1 ?v2)))))
(assert (forall ((?v0 S5) (?v1 S5) (?v2 S5)) (let ((?v_0 (f65 f207 ?v0))) (= (= (f14 ?v_0 ?v1) (f14 ?v_0 ?v2)) (= ?v1 ?v2)))))
(assert (forall ((?v0 S27) (?v1 S27)) (= (= (f37 f208 ?v0) (f37 f208 ?v1)) (= ?v0 ?v1))))
(assert (forall ((?v0 S27)) (not (= (f37 f208 ?v0) ?v0))))
(assert (forall ((?v0 S27)) (not (= ?v0 (f37 f208 ?v0)))))
(assert (forall ((?v0 S24)) (= (= (f33 (f221 f222 ?v0) ?v0) f36) (= ?v0 f36))))
(assert (forall ((?v0 S21)) (= (= (f29 (f215 f216 ?v0) ?v0) f32) (= ?v0 f32))))
(assert (forall ((?v0 S27)) (= (f37 (f219 f220 ?v0) f40) ?v0)))
(assert (forall ((?v0 S24)) (= (f33 (f221 f222 ?v0) f36) ?v0)))
(assert (forall ((?v0 S21)) (= (f29 (f215 f216 ?v0) f32) ?v0)))
(assert (forall ((?v0 S2)) (= (f3 (f217 f218 ?v0) f7) ?v0)))
(assert (forall ((?v0 S27)) (= (f37 (f219 f220 ?v0) f40) ?v0)))
(assert (forall ((?v0 S24)) (= (f33 (f221 f222 ?v0) f36) ?v0)))
(assert (forall ((?v0 S21)) (= (f29 (f215 f216 ?v0) f32) ?v0)))
(assert (forall ((?v0 S2)) (= (f3 (f217 f218 ?v0) f7) ?v0)))
(check-sat)
(exit)
